NAME: ACTUAL_TOURS/amz0811
TYPE: TOUR
COMMENT: RouteID_5773cc62-a9fa-43dc-92ea-230946100a46
DIMENSION: 56
TOUR_SECTION
42
29
19
33
1
3
53
50
31
36
56
8
21
46
6
20
48
44
37
13
23
28
22
40
54
34
25
2
17
49
47
7
55
32
26
30
38
52
41
12
4
9
11
18
16
45
10
35
39
15
14
24
5
43
51
27
-1
EOF
